20
3
20459
452 376 389
false
0.25
30 7 25 21 33 47 48 2 10 13 32 47 18 12 47 30 5 39 4 13
5 44 31 32 35 39 49 48 14 14 8 27 27 45 11 35 36 26 11 11
7 45 31 13 42 41 24 30 10 14 47 41 10 30 42 7 13 46 43 5
89 9 59 17 47 60 26 95 96 28 23 78 22 36 53 54 93 74 91 73
0 61 11 0 0 78 0 0 0 38 0 0 0 0 44 0 0 0 0 0
0 0 0 0 0 20 0 0 0 0 0 0 0 0 0 90 0 0 0
0 0 0 0 18 83 0 0 0 0 0 0 28 0 0 0 44 87
0 0 68 0 0 0 0 0 5 0 0 0 70 0 0 0 0
0 0 0 0 0 81 17 0 0 50 0 0 85 0 0 81
0 0 0 95 0 0 0 0 41 66 99 0 0 0 0
0 0 36 0 0 0 0 0 49 0 12 0 70 42
0 0 0 0 71 0 0 57 0 0 68 0 65
0 0 0 0 1 6 0 0 0 0 0 43
0 0 54 70 0 69 0 0 0 0 0
0 0 0 51 0 0 87 0 0 0
0 0 0 0 43 0 0 0 0
0 41 0 0 0 0 0 0
0 0 10 0 0 0 36
0 0 24 55 0 0
0 0 0 0 0
0 0 0 0
0 0 9
0 35
0 0 26 73 0 0 0 0 0 0 30 97 20 74 0 0 0 0 0
0 0 0 0 0 0 81 0 0 0 2 0 0 0 60 0 0 0
0 0 4 0 0 66 0 0 0 0 0 0 61 0 0 0 0
0 0 0 85 47 0 0 0 0 0 0 0 0 0 81 0
0 0 36 0 94 0 15 2 0 4 0 0 0 0 0
0 0 88 0 0 0 82 0 0 0 0 0 0 0
0 0 0 0 0 0 0 41 52 0 18 0 0
0 0 0 0 0 95 61 0 0 0 0 0
0 0 66 73 0 0 42 0 0 0 0
0 0 0 7 0 0 0 0 0 34
0 19 0 0 0 0 0 0 0
0 0 58 0 45 87 16 56
0 50 37 0 0 0 0
0 91 0 0 0 30
0 0 0 72 0
0 0 0 0
0 82 0
0 0
0
0 0 0 0 0 0 0 0 63 0 0 0 0 0 0 0 0 72
0 21 3 0 0 99 12 0 0 0 0 0 0 0 0 78 0
0 0 0 0 7 0 0 0 0 0 0 0 0 0 0 0
0 0 18 89 0 0 0 0 0 0 37 0 0 0 54
0 0 12 0 0 17 0 0 65 0 5 0 0 0
0 50 0 0 0 0 0 0 0 9 0 0 0
0 0 0 0 0 20 0 0 74 0 0 0
0 16 0 0 0 0 0 0 0 0 13
0 34 0 0 0 0 0 59 7 70
0 0 78 0 0 0 0 0 94
0 0 0 0 0 0 0 0
0 0 0 0 28 0 0
0 0 0 62 0 0
0 98 0 0 0
0 0 83 0
0 0 0
0 0
0
0 0 0 0 0 0 0 0 0 0 0 0 86 63 47 0 0
0 0 0 0 62 0 97 0 0 0 0 0 0 0 0 0
0 0 0 0 86 50 0 0 0 67 0 0 70 94 0
0 82 65 0 0 0 0 0 0 0 0 0 0 92
0 0 0 0 74 0 0 0 64 0 0 0 65
0 50 25 0 0 0 0 0 0 0 0 62
0 0 0 55 0 0 20 0 0 0 99
0 0 70 0 96 96 0 0 66 0
0 0 0 0 0 0 0 0 0
0 0 92 0 0 0 0 0
0 0 0 52 0 2 0
0 20 0 0 0 0
0 4 26 2 0
0 0 0 0
0 53 0
0 90
0
0 0 0 51 0 0 44 0 57 53 72 0 0 0 63 0
0 0 0 67 0 0 0 0 0 0 3 0 0 83 0
0 0 83 38 10 0 15 0 0 0 0 76 0 0
0 71 75 0 0 0 0 42 0 32 0 0 45
0 0 0 0 0 82 0 0 0 91 0 0
0 81 0 42 50 0 81 0 63 0 4
0 0 0 10 96 0 0 0 17 33
0 0 0 0 0 0 0 0 0
0 0 84 0 0 0 0 6
0 0 0 0 0 74 0
0 27 15 42 0 0
0 0 0 0 13
0 0 0 0
0 13 69
0 0
0
0 0 0 0 53 0 0 0 0 76 0 70 0 0 0
0 81 0 0 11 29 14 0 0 0 0 0 5 0
0 59 61 89 61 60 0 0 0 0 0 0 0
0 0 0 67 0 0 0 0 0 0 0 0
0 21 0 0 0 0 0 0 0 0 0
0 0 0 35 0 0 0 0 0 0
0 0 0 0 93 0 0 0 0
0 0 3 28 0 0 0 0
0 66 0 0 0 25 0
0 63 0 25 0 0
0 0 0 6 0
0 0 52 0
0 0 0
0 0
0
0 55 43 0 0 0 2 75 0 0 0 23 0 0
0 10 39 10 0 20 42 0 0 0 0 25 0
0 0 0 0 0 0 47 0 0 0 0 42
0 97 0 86 0 51 0 0 50 0 0
0 0 0 0 0 0 0 0 0 0
0 0 0 0 0 50 0 0 51
0 0 0 80 0 0 73 0
0 0 0 0 0 0 0
0 0 0 0 0 0
0 0 0 0 0
0 0 0 0
0 35 0
0 0
0
0 0 0 0 0 0 0 0 85 0 34 0 0
0 9 0 0 0 0 0 79 0 0 0 0
0 0 0 0 0 84 46 71 0 54 0
0 37 0 0 96 0 79 0 0 0
0 0 0 0 0 0 53 84 0
0 0 0 76 44 0 0 0
0 0 0 0 0 0 0
0 43 0 0 92 0
0 0 91 0 0
0 63 0 78
0 0 87
0 86
0
0 0 0 4 0 0 99 0 0 0 0 0
0 0 0 0 0 0 40 32 0 0 0
0 0 0 4 46 0 0 0 0 0
0 0 68 0 0 0 0 72 0
0 0 0 0 0 72 89 0
0 0 0 0 0 0 0
0 0 0 0 36 77
0 7 19 33 0
0 99 0 0
0 0 0
0 0
0
0 0 0 0 0 0 0 32 0 1 0
0 74 0 0 0 5 95 0 0 0
0 0 0 0 0 0 0 24 0
0 0 0 0 18 0 0 0
0 0 0 77 0 0 66
0 0 0 0 81 81
0 0 0 64 0
0 0 0 0
0 0 96
0 0
0
0 0 0 0 0 0 68 0 7 38
0 0 0 0 14 0 3 0 72
0 0 26 4 73 0 0 1
0 0 0 0 0 0 63
0 0 0 8 0 0
0 37 89 11 20
0 0 0 0
0 0 29
0 0
0
0 0 0 0 97 0 0 0 90
0 62 0 0 0 71 0 53
0 0 0 37 0 0 0
0 0 0 0 88 42
0 0 0 0 0
0 0 0 43
0 0 100
0 0
0
0 0 0 20 0 0 86 64
0 0 13 0 0 0 16
0 0 0 94 0 0
0 0 0 12 0
0 0 0 0
0 0 0
0 0
0
0 0 0 0 0 0 0
0 0 27 80 0 0
0 0 97 0 0
0 63 3 0
0 0 0
0 45
0
0 0 0 0 0 0
0 71 3 0 46
0 0 0 0
0 91 0
0 21
0
0 0 51 0 0
0 0 0 2
0 0 0
0 0
0
0 0 0 0
0 19 0
0 0
0
0 87 18
0 0
0
0 0
0
0
2581 1947 2752 2699 2327 2588 2812 2877 2897 2790 2754 2026 2532 1810 3118 2670 2327 2742 2623 2899
323.6492063492064 121.88650793650794 95.87612903225806 140.1609813797314 64.13520923520923 61.514918455240206 77.71258503401361 531.4458333333333 262.1095238095238 204.3956043956044 162.96941489361703 55.85268472070064 162.54814814814813 83.7962962962963 141.34435540818518 182.23809523809527 236.3462962962963 78.45930880713489 318.4015151515152 355.44848484848484
